NAME : a280
COMMENT : Tour length 3293
TYPE : TOUR
DIMENSION : 280
TOUR_SECTION
1
280
2
3
279
278
4
277
6
5
7
8
9
10
11
12
13
14
15
271
272
273
274
275
276
260
261
262
263
264
265
266
267
268
269
270
134
135
136
137
138
139
148
141
142
143
146
145
144
200
202
203
204
205
206
207
212
211
214
215
218
219
222
223
224
225
226
227
228
229
230
251
250
245
246
231
232
237
238
239
240
241
244
247
248
249
255
208
210
209
252
253
254
257
258
259
256
243
242
236
235
234
233
213
216
217
220
221
195
194
197
196
201
198
199
147
149
150
178
177
176
181
182
183
184
185
187
186
190
189
188
165
164
163
162
161
175
160
159
158
157
119
120
121
122
123
124
125
30
31
32
29
28
27
26
22
25
23
24
17
18
19
20
21
128
127
126
129
130
131
132
133
16
140
179
180
151
152
156
153
155
154
33
34
35
36
37
38
39
40
41
42
43
60
61
118
117
115
114
111
110
108
104
103
102
101
100
99
98
93
94
95
96
97
92
91
90
109
89
81
80
79
76
75
77
78
74
73
72
71
70
67
66
65
85
84
83
82
88
112
113
87
86
116
62
63
64
58
59
44
45
46
47
54
53
48
49
50
51
52
55
56
57
68
69
107
106
105
173
174
171
172
170
169
168
167
166
191
192
193
1
-1
EOF